(set-info :smt-lib-version 2.6)
(set-logic QF_NIA)
(set-info :source |
Generated by: Cristina Borralleras, Daniel Larraz, Albert Oliveras, Enric Rodriguez-Carbonell, Albert Rubio
Generated on: 2017-04-27
Generator: VeryMax
Application: Termination proving
Target solver: barcelogic
|)
(set-info :license "https://creativecommons.org/licenses/by/4.0/")
(set-info :category "industrial")
(set-info :status sat)
(declare-fun Nl2main_a1 () Int)
(declare-fun Nl2main_b1 () Int)
(declare-fun Nl2main_a2 () Int)
(declare-fun Nl2main_b2 () Int)
(declare-fun Nl2main_a3 () Int)
(declare-fun Nl2main_b3 () Int)
(declare-fun lam0n0 () Int)
(declare-fun lam0n1 () Int)
(declare-fun lam0n2 () Int)
(declare-fun lam0n3 () Int)
(declare-fun lam0n4 () Int)
(declare-fun UndefCntr0_CT () Int)
(declare-fun Nl2CT1 () Int)
(declare-fun Nl2CT2 () Int)
(declare-fun Nl2CT3 () Int)
(declare-fun UndefCntr0_main_a () Int)
(declare-fun UndefCntr0_main_b () Int)
(declare-fun UndefCntr0_undef6 () Int)
(declare-fun lam1n0 () Int)
(declare-fun lam1n1 () Int)
(declare-fun lam1n2 () Int)
(declare-fun lam1n3 () Int)
(declare-fun lam1n4 () Int)
(declare-fun lam2n0 () Int)
(declare-fun lam2n1 () Int)
(declare-fun lam2n2 () Int)
(declare-fun lam2n3 () Int)
(declare-fun lam2n4 () Int)
(declare-fun lam3n0 () Int)
(declare-fun lam3n1 () Int)
(declare-fun lam3n2 () Int)
(declare-fun lam3n3 () Int)
(declare-fun lam3n4 () Int)
(declare-fun lam4n0 () Int)
(declare-fun lam4n1 () Int)
(declare-fun lam5n0 () Int)
(declare-fun lam5n1 () Int)
(declare-fun lam6n0 () Int)
(declare-fun lam6n1 () Int)
(declare-fun main_a () Int)
(declare-fun undef4 () Int)
(declare-fun main_b () Int)
(declare-fun undef5 () Int)
(declare-fun FV_main_a_1 () Int)
(declare-fun FV_main_b_1 () Int)
(declare-fun lam7n0 () Int)
(declare-fun lam7n1 () Int)
(declare-fun lam7n2 () Int)
(declare-fun lam7n3 () Int)
(declare-fun FV_main_b_2 () Int)
(declare-fun FV_main_a_2 () Int)
(assert ( and ( <= ( - 1 ) Nl2main_a1 ) ( <= Nl2main_a1 1 ) ( <= ( - 1 ) Nl2main_b1 ) ( <= Nl2main_b1 1 ) ( <= ( - 1 ) Nl2main_a2 ) ( <= Nl2main_a2 1 ) ( <= ( - 1 ) Nl2main_b2 ) ( <= Nl2main_b2 1 ) ( <= ( - 1 ) Nl2main_a3 ) ( <= Nl2main_a3 1 ) ( <= ( - 1 ) Nl2main_b3 ) ( <= Nl2main_b3 1 ) ))
(assert ( or ( and ( >= lam0n0 0 ) ( >= lam0n1 0 ) ( >= lam0n2 0 ) ( >= lam0n3 0 ) ( >= lam0n4 0 ) ( > ( + ( * 1 lam0n0 ) ( * UndefCntr0_CT lam0n1 ) ( * Nl2CT1 lam0n2 ) ( * Nl2CT2 lam0n3 ) ( * Nl2CT3 lam0n4 ) ( - 1 ) ) 0 ) ( = ( + ( * UndefCntr0_main_a lam0n1 ) ( * Nl2main_a1 lam0n2 ) ( * Nl2main_a2 lam0n3 ) ( * Nl2main_a3 lam0n4 ) ) 0 ) ( = ( + ( * ( - 1 ) lam0n0 ) ( * UndefCntr0_main_b lam0n1 ) ( * Nl2main_b1 lam0n2 ) ( * Nl2main_b2 lam0n3 ) ( * Nl2main_b3 lam0n4 ) ) 0 ) ( = ( * UndefCntr0_undef6 lam0n1 ) 0 ) ) ( and ( >= lam1n0 0 ) ( >= lam1n1 0 ) ( >= lam1n2 0 ) ( >= lam1n3 0 ) ( >= lam1n4 0 ) ( > ( + ( * 1 lam1n0 ) ( * UndefCntr0_CT lam1n1 ) ( * Nl2CT1 lam1n2 ) ( * Nl2CT2 lam1n3 ) ( * Nl2CT3 lam1n4 ) ( - 1 ( + ( + Nl2CT1 ( * Nl2main_a1 ( - 1 ) ) ) ( * Nl2main_b1 ( - 1 ) ) ) ) ) 0 ) ( = ( + ( * UndefCntr0_main_a lam1n1 ) ( * Nl2main_a1 lam1n2 ) ( * Nl2main_a2 lam1n3 ) ( * Nl2main_a3 lam1n4 ) ( - ( + ( + 0 ( * Nl2main_a1 1 ) ) ( * Nl2main_b1 1 ) ) ) ) 0 ) ( = ( + ( * ( - 1 ) lam1n0 ) ( * UndefCntr0_main_b lam1n1 ) ( * Nl2main_b1 lam1n2 ) ( * Nl2main_b2 lam1n3 ) ( * Nl2main_b3 lam1n4 ) ) 0 ) ( = ( + ( * UndefCntr0_undef6 lam1n1 ) ( - ( + ( + 0 ( * Nl2main_a1 ( - 1 ) ) ) ( * Nl2main_b1 ( - 1 ) ) ) ) ) 0 ) ) ))
(assert ( or ( and ( >= lam0n0 0 ) ( >= lam0n1 0 ) ( >= lam0n2 0 ) ( >= lam0n3 0 ) ( >= lam0n4 0 ) ( > ( + ( * 1 lam0n0 ) ( * UndefCntr0_CT lam0n1 ) ( * Nl2CT1 lam0n2 ) ( * Nl2CT2 lam0n3 ) ( * Nl2CT3 lam0n4 ) ( - 1 ) ) 0 ) ( = ( + ( * UndefCntr0_main_a lam0n1 ) ( * Nl2main_a1 lam0n2 ) ( * Nl2main_a2 lam0n3 ) ( * Nl2main_a3 lam0n4 ) ) 0 ) ( = ( + ( * ( - 1 ) lam0n0 ) ( * UndefCntr0_main_b lam0n1 ) ( * Nl2main_b1 lam0n2 ) ( * Nl2main_b2 lam0n3 ) ( * Nl2main_b3 lam0n4 ) ) 0 ) ( = ( * UndefCntr0_undef6 lam0n1 ) 0 ) ) ( and ( >= lam2n0 0 ) ( >= lam2n1 0 ) ( >= lam2n2 0 ) ( >= lam2n3 0 ) ( >= lam2n4 0 ) ( > ( + ( * 1 lam2n0 ) ( * UndefCntr0_CT lam2n1 ) ( * Nl2CT1 lam2n2 ) ( * Nl2CT2 lam2n3 ) ( * Nl2CT3 lam2n4 ) ( - 1 ( + ( + Nl2CT2 ( * Nl2main_a2 ( - 1 ) ) ) ( * Nl2main_b2 ( - 1 ) ) ) ) ) 0 ) ( = ( + ( * UndefCntr0_main_a lam2n1 ) ( * Nl2main_a1 lam2n2 ) ( * Nl2main_a2 lam2n3 ) ( * Nl2main_a3 lam2n4 ) ( - ( + ( + 0 ( * Nl2main_a2 1 ) ) ( * Nl2main_b2 1 ) ) ) ) 0 ) ( = ( + ( * ( - 1 ) lam2n0 ) ( * UndefCntr0_main_b lam2n1 ) ( * Nl2main_b1 lam2n2 ) ( * Nl2main_b2 lam2n3 ) ( * Nl2main_b3 lam2n4 ) ) 0 ) ( = ( + ( * UndefCntr0_undef6 lam2n1 ) ( - ( + ( + 0 ( * Nl2main_a2 ( - 1 ) ) ) ( * Nl2main_b2 ( - 1 ) ) ) ) ) 0 ) ) ))
(assert ( or ( and ( >= lam0n0 0 ) ( >= lam0n1 0 ) ( >= lam0n2 0 ) ( >= lam0n3 0 ) ( >= lam0n4 0 ) ( > ( + ( * 1 lam0n0 ) ( * UndefCntr0_CT lam0n1 ) ( * Nl2CT1 lam0n2 ) ( * Nl2CT2 lam0n3 ) ( * Nl2CT3 lam0n4 ) ( - 1 ) ) 0 ) ( = ( + ( * UndefCntr0_main_a lam0n1 ) ( * Nl2main_a1 lam0n2 ) ( * Nl2main_a2 lam0n3 ) ( * Nl2main_a3 lam0n4 ) ) 0 ) ( = ( + ( * ( - 1 ) lam0n0 ) ( * UndefCntr0_main_b lam0n1 ) ( * Nl2main_b1 lam0n2 ) ( * Nl2main_b2 lam0n3 ) ( * Nl2main_b3 lam0n4 ) ) 0 ) ( = ( * UndefCntr0_undef6 lam0n1 ) 0 ) ) ( and ( >= lam3n0 0 ) ( >= lam3n1 0 ) ( >= lam3n2 0 ) ( >= lam3n3 0 ) ( >= lam3n4 0 ) ( > ( + ( * 1 lam3n0 ) ( * UndefCntr0_CT lam3n1 ) ( * Nl2CT1 lam3n2 ) ( * Nl2CT2 lam3n3 ) ( * Nl2CT3 lam3n4 ) ( - 1 ( + ( + Nl2CT3 ( * Nl2main_a3 ( - 1 ) ) ) ( * Nl2main_b3 ( - 1 ) ) ) ) ) 0 ) ( = ( + ( * UndefCntr0_main_a lam3n1 ) ( * Nl2main_a1 lam3n2 ) ( * Nl2main_a2 lam3n3 ) ( * Nl2main_a3 lam3n4 ) ( - ( + ( + 0 ( * Nl2main_a3 1 ) ) ( * Nl2main_b3 1 ) ) ) ) 0 ) ( = ( + ( * ( - 1 ) lam3n0 ) ( * UndefCntr0_main_b lam3n1 ) ( * Nl2main_b1 lam3n2 ) ( * Nl2main_b2 lam3n3 ) ( * Nl2main_b3 lam3n4 ) ) 0 ) ( = ( + ( * UndefCntr0_undef6 lam3n1 ) ( - ( + ( + 0 ( * Nl2main_a3 ( - 1 ) ) ) ( * Nl2main_b3 ( - 1 ) ) ) ) ) 0 ) ) ))
(assert ( and ( <= ( + Nl2CT1 ( * Nl2main_a1 FV_main_a_1 ) ( * Nl2main_b1 FV_main_b_1 ) ) 0 ) ( <= ( + Nl2CT2 ( * Nl2main_a2 FV_main_a_1 ) ( * Nl2main_b2 FV_main_b_1 ) ) 0 ) ( <= ( + Nl2CT3 ( * Nl2main_a3 FV_main_a_1 ) ( * Nl2main_b3 FV_main_b_1 ) ) 0 ) ))
(assert ( or ( not ( = UndefCntr0_main_a 0 ) ) ( not ( = UndefCntr0_main_b 0 ) ) ( not ( = UndefCntr0_undef6 0 ) ) ( = UndefCntr0_CT 0 ) ))
(assert ( or ( and ( = UndefCntr0_main_a 0 ) ( = UndefCntr0_main_b 0 ) ) ( not ( = UndefCntr0_undef6 0 ) ) ))
(assert ( and ( >= lam7n0 0 ) ( >= lam7n1 0 ) ( >= lam7n2 0 ) ( >= lam7n3 0 ) ( > ( + ( * Nl2CT1 lam7n1 ) ( * Nl2CT2 lam7n2 ) ( * Nl2CT3 lam7n3 ) ( - 1 ) ) 0 ) ( = ( + ( * Nl2main_a1 lam7n1 ) ( * Nl2main_a2 lam7n2 ) ( * Nl2main_a3 lam7n3 ) ) 0 ) ( = ( + ( * 1 lam7n0 ) ( * Nl2main_b1 lam7n1 ) ( * Nl2main_b2 lam7n2 ) ( * Nl2main_b3 lam7n3 ) ) 0 ) ))
(assert ( and ( and ( <= ( + Nl2CT1 ( * Nl2main_b1 FV_main_b_2 ) ( * Nl2main_a1 FV_main_a_2 ) ) 0 ) ( <= ( + Nl2CT2 ( * Nl2main_b2 FV_main_b_2 ) ( * Nl2main_a2 FV_main_a_2 ) ) 0 ) ( <= ( + Nl2CT3 ( * Nl2main_b3 FV_main_b_2 ) ( * Nl2main_a3 FV_main_a_2 ) ) 0 ) ) ( <= ( + 1 ( * ( - 1 ) FV_main_b_2 ) ) 0 ) ))
(check-sat)
(exit)
